(set-info :source |printed by MathSAT|)
(declare-fun |!{$(in_main#0)<array.1>}| () (Array Int Int))
(declare-fun |!{$(in_main#0)<array.1>}.next| () (Array Int Int))
(declare-fun |!{$(in_main#0)<N>}| () Int)
(declare-fun |!{$(in_main#0)<N>}.next| () Int)
(declare-fun |!{$(in_main#0)<idx>}| () Int)
(declare-fun |!{$(in_main#0)<idx>}.next| () Int)
(declare-fun |!{$(in_main#0)<j>}| () Int)
(declare-fun |!{$(in_main#0)<j>}.next| () Int)
(declare-fun |!{$(in_main#0)<k>}| () Int)
(declare-fun |!{$(in_main#0)<k>}.next| () Int)
(declare-fun |!{$(in_main#0)<v>}| () Int)
(declare-fun |!{$(in_main#0)<v>}.next| () Int)
(declare-fun |!{$(in_main#0)<$(in___VERIFIER_nondet_int#0)<h#<__VERIFIER_nondet_int.return>>>}| () Int)
(declare-fun |!{$(in_main#0)<$(in___VERIFIER_nondet_int#2)<h#<__VERIFIER_nondet_int.return>>>}| () Int)
(declare-fun |!{$(in_main#0)<$(in___VERIFIER_nondet_int#3)<h#<__VERIFIER_nondet_int.return>>>}| () Int)
(declare-fun !pc () Int)
(declare-fun !pc.next () Int)
(declare-fun |%{$(in_main#0)<idx>}#1| () Int)
(declare-fun |%{$(in_main#0)<j>}#1| () Int)
(declare-fun |%{$(in_main#0)<v>}#1| () Int)
(declare-fun |%{$(in_main#0)<array.1>}#1| () (Array Int Int))
(declare-fun |%{$(in_main#0)<idx>}#2| () Int)
(define-fun .def_37 () Int (! !pc :next !pc.next))
(define-fun .def_40 () Bool (! (= .def_37 2) :init true))
(define-fun .def_179 () Bool (= .def_37 41))
(define-fun .def_146 () Bool (= !pc.next 70))
(define-fun .def_182 () Bool (and .def_146 .def_179))
(define-fun .def_176 () Bool (= |!{$(in_main#0)<v>}.next| |!{$(in_main#0)<$(in___VERIFIER_nondet_int#3)<h#<__VERIFIER_nondet_int.return>>>}|))
(define-fun .def_10 () Int (! |!{$(in_main#0)<N>}| :next |!{$(in_main#0)<N>}.next|))
(define-fun .def_173 () Bool (= .def_10 |!{$(in_main#0)<j>}.next|))
(define-fun .def_171 () Bool (= |!{$(in_main#0)<idx>}.next| (- 1)))
(define-fun .def_75 () Bool (= .def_10 |!{$(in_main#0)<N>}.next|))
(define-fun .def_8 () (Array Int Int) (! |!{$(in_main#0)<array.1>}| :next |!{$(in_main#0)<array.1>}.next|))
(define-fun .def_74 () Bool (= .def_8 |!{$(in_main#0)<array.1>}.next|))
(define-fun .def_76 () Bool (and .def_74 .def_75))
(define-fun .def_172 () Bool (and .def_76 .def_171))
(define-fun .def_174 () Bool (and .def_172 .def_173))
(define-fun .def_16 () Int (! |!{$(in_main#0)<k>}| :next |!{$(in_main#0)<k>}.next|))
(define-fun .def_81 () Bool (= .def_16 |!{$(in_main#0)<k>}.next|))
(define-fun .def_175 () Bool (and .def_81 .def_174))
(define-fun .def_177 () Bool (and .def_175 .def_176))
(define-fun .def_157 () Bool (<= .def_10 .def_16))
(define-fun .def_178 () Bool (and .def_157 .def_177))
(define-fun .def_183 () Bool (and .def_178 .def_182))
(define-fun .def_71 () Bool (= !pc.next 41))
(define-fun .def_180 () Bool (and .def_71 .def_179))
(define-fun .def_165 () Int (* (- 1) |!{$(in_main#0)<k>}.next|))
(define-fun .def_166 () Int (+ .def_16 .def_165))
(define-fun .def_167 () Bool (= .def_166 (- 1)))
(define-fun .def_159 () (Array Int Int) (store .def_8 .def_16 |!{$(in_main#0)<$(in___VERIFIER_nondet_int#2)<h#<__VERIFIER_nondet_int.return>>>}|))
(define-fun .def_161 () Bool (= |!{$(in_main#0)<array.1>}.next| .def_159))
(define-fun .def_162 () Bool (and .def_75 .def_161))
(define-fun .def_12 () Int (! |!{$(in_main#0)<idx>}| :next |!{$(in_main#0)<idx>}.next|))
(define-fun .def_77 () Bool (= .def_12 |!{$(in_main#0)<idx>}.next|))
(define-fun .def_163 () Bool (and .def_77 .def_162))
(define-fun .def_14 () Int (! |!{$(in_main#0)<j>}| :next |!{$(in_main#0)<j>}.next|))
(define-fun .def_79 () Bool (= .def_14 |!{$(in_main#0)<j>}.next|))
(define-fun .def_164 () Bool (and .def_79 .def_163))
(define-fun .def_168 () Bool (and .def_164 .def_167))
(define-fun .def_18 () Int (! |!{$(in_main#0)<v>}| :next |!{$(in_main#0)<v>}.next|))
(define-fun .def_83 () Bool (= .def_18 |!{$(in_main#0)<v>}.next|))
(define-fun .def_169 () Bool (and .def_83 .def_168))
(define-fun .def_158 () Bool (not .def_157))
(define-fun .def_170 () Bool (and .def_158 .def_169))
(define-fun .def_181 () Bool (and .def_170 .def_180))
(define-fun .def_184 () Bool (or .def_181 .def_183))
(define-fun .def_145 () Bool (= .def_37 70))
(define-fun .def_87 () Bool (= !pc.next 0))
(define-fun .def_153 () Bool (and .def_87 .def_145))
(define-fun .def_112 () Int (select .def_8 .def_12))
(define-fun .def_113 () Bool (= .def_18 .def_112))
(define-fun .def_114 () Int (ite .def_113 1 0))
(define-fun .def_115 () Bool (= .def_114 0))
(define-fun .def_116 () Bool (not .def_115))
(define-fun .def_110 () Bool (= .def_12 (- 1)))
(define-fun .def_111 () Bool (not .def_110))
(define-fun .def_119 () Bool (and .def_111 .def_116))
(define-fun .def_122 () Bool (or .def_110 .def_119))
(define-fun .def_78 () Bool (and .def_76 .def_77))
(define-fun .def_80 () Bool (and .def_78 .def_79))
(define-fun .def_82 () Bool (and .def_80 .def_81))
(define-fun .def_84 () Bool (and .def_82 .def_83))
(define-fun .def_142 () Bool (and .def_84 .def_122))
(define-fun .def_89 () Bool (<= .def_14 0))
(define-fun .def_143 () Bool (and .def_89 .def_142))
(define-fun .def_154 () Bool (and .def_143 .def_153))
(define-fun .def_149 () Bool (= !pc.next 113))
(define-fun .def_150 () Bool (and .def_145 .def_149))
(define-fun .def_134 () Bool (and .def_74 .def_115))
(define-fun .def_135 () Bool (and .def_75 .def_134))
(define-fun .def_136 () Bool (and .def_77 .def_135))
(define-fun .def_137 () Bool (and .def_79 .def_136))
(define-fun .def_138 () Bool (and .def_81 .def_137))
(define-fun .def_139 () Bool (and .def_83 .def_138))
(define-fun .def_140 () Bool (and .def_111 .def_139))
(define-fun .def_141 () Bool (and .def_89 .def_140))
(define-fun .def_151 () Bool (and .def_141 .def_150))
(define-fun .def_147 () Bool (and .def_145 .def_146))
(define-fun .def_126 () Int (* (- 1) |!{$(in_main#0)<j>}.next|))
(define-fun .def_127 () Int (+ .def_14 .def_126))
(define-fun .def_128 () Bool (= .def_127 1))
(define-fun .def_124 () Bool (= |!{$(in_main#0)<idx>}.next| |%{$(in_main#0)<idx>}#2|))
(define-fun .def_125 () Bool (and .def_76 .def_124))
(define-fun .def_129 () Bool (and .def_125 .def_128))
(define-fun .def_130 () Bool (and .def_81 .def_129))
(define-fun .def_131 () Bool (and .def_83 .def_130))
(define-fun .def_103 () Int (* (- 1) |%{$(in_main#0)<idx>}#2|))
(define-fun .def_104 () Int (+ .def_14 .def_103))
(define-fun .def_105 () Bool (= .def_104 1))
(define-fun .def_92 () Int (+ .def_14 (- 1)))
(define-fun .def_93 () Int (select .def_8 .def_92))
(define-fun .def_94 () Bool (= .def_18 .def_93))
(define-fun .def_107 () Bool (and .def_94 .def_105))
(define-fun .def_102 () Bool (= .def_12 |%{$(in_main#0)<idx>}#2|))
(define-fun .def_95 () Bool (not .def_94))
(define-fun .def_106 () Bool (and .def_95 .def_102))
(define-fun .def_108 () Bool (or .def_106 .def_107))
(define-fun .def_132 () Bool (and .def_108 .def_131))
(define-fun .def_90 () Bool (not .def_89))
(define-fun .def_133 () Bool (and .def_90 .def_132))
(define-fun .def_148 () Bool (and .def_133 .def_147))
(define-fun .def_152 () Bool (or .def_148 .def_151))
(define-fun .def_155 () Bool (or .def_152 .def_154))
(define-fun .def_72 () Bool (and .def_40 .def_71))
(define-fun .def_67 () Bool (= |!{$(in_main#0)<v>}.next| |%{$(in_main#0)<v>}#1|))
(define-fun .def_65 () Bool (= |!{$(in_main#0)<k>}.next| 0))
(define-fun .def_63 () Bool (= |!{$(in_main#0)<j>}.next| |%{$(in_main#0)<j>}#1|))
(define-fun .def_61 () Bool (= |!{$(in_main#0)<idx>}.next| |%{$(in_main#0)<idx>}#1|))
(define-fun .def_59 () Bool (= |!{$(in_main#0)<N>}.next| |!{$(in_main#0)<$(in___VERIFIER_nondet_int#0)<h#<__VERIFIER_nondet_int.return>>>}|))
(define-fun .def_58 () Bool (= |!{$(in_main#0)<array.1>}.next| |%{$(in_main#0)<array.1>}#1|))
(define-fun .def_60 () Bool (and .def_58 .def_59))
(define-fun .def_62 () Bool (and .def_60 .def_61))
(define-fun .def_64 () Bool (and .def_62 .def_63))
(define-fun .def_66 () Bool (and .def_64 .def_65))
(define-fun .def_68 () Bool (and .def_66 .def_67))
(define-fun .def_53 () Bool (<= |!{$(in_main#0)<$(in___VERIFIER_nondet_int#0)<h#<__VERIFIER_nondet_int.return>>>}| 0))
(define-fun .def_54 () Bool (not .def_53))
(define-fun .def_55 () Int (ite .def_54 1 0))
(define-fun .def_56 () Bool (= .def_55 0))
(define-fun .def_57 () Bool (not .def_56))
(define-fun .def_69 () Bool (and .def_57 .def_68))
(define-fun .def_73 () Bool (and .def_69 .def_72))
(define-fun .def_156 () Bool (or .def_73 .def_155))
(define-fun .def_185 () Bool (! (or .def_156 .def_184) :trans true))
(define-fun .def_86 () Bool (= .def_37 113))
(define-fun .def_186 () Bool (! (not .def_86) :invar-property 0 :invar-property-name ||))
(assert true)
